GLPSOL--GLPK LP/MIP Solver 5.0
Parameter(s) specified in the command line:
 --cpxlp --first inputs/new_no_tr/order/triang7_2_tiers_input.lp -o solutions/new_no_tr/triang7_2_tiers_input.lp
Reading problem data from 'inputs/new_no_tr/order/triang7_2_tiers_input.lp'...
inputs/new_no_tr/order/triang7_2_tiers_input.lp:4167: warning: lower bound of variable 'm_0_0' redefined
inputs/new_no_tr/order/triang7_2_tiers_input.lp:4167: warning: upper bound of variable 'm_0_0' redefined
3991 rows, 1597 columns, 11607 non-zeros
1597 integer variables, 1428 of which are binary
5735 lines were read
GLPK Integer Optimizer 5.0
3991 rows, 1597 columns, 11607 non-zeros
1597 integer variables, 1428 of which are binary
Preprocessing...
42 hidden packing inequaliti(es) were detected
84 hidden covering inequaliti(es) were detected
672 constraint coefficient(s) were reduced
3559 rows, 1342 columns, 10123 non-zeros
1342 integer variables, 1313 of which are binary
Scaling...
 A: min|aij| =  1.000e+00  max|aij| =  9.600e+01  ratio =  9.600e+01
GM: min|aij| =  3.997e-01  max|aij| =  2.502e+00  ratio =  6.259e+00
EQ: min|aij| =  1.614e-01  max|aij| =  1.000e+00  ratio =  6.195e+00
2N: min|aij| =  1.250e-01  max|aij| =  1.500e+00  ratio =  1.200e+01
Constructing initial basis...
Size of triangular part is 3223
Solving LP relaxation...
GLPK Simplex Optimizer 5.0
3559 rows, 1342 columns, 10123 non-zeros
      0: obj =   2.070000000e+02 inf =   1.567e+02 (129)
Perturbing LP to avoid stalling [199]...
   1152: obj =   3.713405874e+02 inf =   4.020e-08 (0) 11
Removing LP perturbation [2251]...
*  2251: obj =   2.278775510e+02 inf =   1.043e-14 (0) 10
OPTIMAL LP SOLUTION FOUND
Integer optimization begins...
Long-step dual simplex will be used
+  2251: mip =     not found yet >=              -inf        (1; 0)
+ 23152: mip =     not found yet >=   2.310000000e+02        (26; 21)
+ 43857: mip =     not found yet >=   2.330000000e+02        (49; 43)
+ 66075: mip =     not found yet >=   2.350000000e+02        (64; 86)
+ 88376: mip =     not found yet >=   2.360000000e+02        (79; 152)
+110497: mip =     not found yet >=   2.380000000e+02        (74; 208)
+132255: mip =     not found yet >=   2.390000000e+02        (91; 247)
+155081: mip =     not found yet >=   2.400000000e+02        (123; 261)
+174559: >>>>>   3.590000000e+02 >=   2.400000000e+02  33.1% (206; 267)
+194788: mip =   3.590000000e+02 >=   2.400000000e+02  33.1% (224; 296)
+214310: mip =   3.590000000e+02 >=   2.410000000e+02  32.9% (276; 313)
+234699: mip =   3.590000000e+02 >=   2.410000000e+02  32.9% (330; 335)
+254946: mip =   3.590000000e+02 >=   2.410000000e+02  32.9% (365; 343)
Time used: 60.5 secs.  Memory used: 7.5 Mb.
+275824: mip =   3.590000000e+02 >=   2.420000000e+02  32.6% (416; 373)
+297571: mip =   3.590000000e+02 >=   2.420000000e+02  32.6% (511; 390)
+316831: mip =   3.590000000e+02 >=   2.430000000e+02  32.3% (576; 408)
+337147: mip =   3.590000000e+02 >=   2.430000000e+02  32.3% (628; 430)
+357674: mip =   3.590000000e+02 >=   2.440000000e+02  32.0% (683; 451)
+378132: mip =   3.590000000e+02 >=   2.440000000e+02  32.0% (693; 468)
+397648: mip =   3.590000000e+02 >=   2.440000000e+02  32.0% (725; 479)
+417213: mip =   3.590000000e+02 >=   2.450000000e+02  31.8% (755; 505)
+436450: mip =   3.590000000e+02 >=   2.460000000e+02  31.5% (797; 515)
+456250: mip =   3.590000000e+02 >=   2.460000000e+02  31.5% (831; 526)
+475607: mip =   3.590000000e+02 >=   2.470000000e+02  31.2% (842; 540)
Time used: 120.5 secs.  Memory used: 10.3 Mb.
+495791: mip =   3.590000000e+02 >=   2.480000000e+02  30.9% (875; 559)
+516073: mip =   3.590000000e+02 >=   2.480000000e+02  30.9% (924; 568)
+536827: mip =   3.590000000e+02 >=   2.490000000e+02  30.6% (983; 591)
+557074: mip =   3.590000000e+02 >=   2.490000000e+02  30.6% (1004; 608)
+577474: mip =   3.590000000e+02 >=   2.520000000e+02  29.8% (1037; 628)
+596644: mip =   3.590000000e+02 >=   2.540000000e+02  29.2% (1049; 640)
+609290: >>>>>   3.430000000e+02 >=   2.540000000e+02  25.9% (1105; 648)
+629636: mip =   3.430000000e+02 >=   2.550000000e+02  25.7% (1107; 788)
+650035: mip =   3.430000000e+02 >=   2.560000000e+02  25.4% (1145; 794)
+671778: mip =   3.430000000e+02 >=   2.580000000e+02  24.8% (1194; 810)
+692805: mip =   3.430000000e+02 >=   2.590000000e+02  24.5% (1268; 824)
+713595: mip =   3.430000000e+02 >=   2.600000000e+02  24.2% (1262; 876)
+723298: >>>>>   3.330000000e+02 >=   2.600000000e+02  21.9% (1280; 931)
Time used: 180.6 secs.  Memory used: 13.2 Mb.
+743742: mip =   3.330000000e+02 >=   2.620000000e+02  21.3% (1273; 1053)
+764462: mip =   3.330000000e+02 >=   2.620000000e+02  21.3% (1319; 1068)
+776970: >>>>>   3.310000000e+02 >=   2.620000000e+02  20.8% (1352; 1089)
+800105: mip =   3.310000000e+02 >=   2.630000000e+02  20.5% (1407; 1134)
+821734: mip =   3.310000000e+02 >=   2.630000000e+02  20.5% (1469; 1158)
+842803: mip =   3.310000000e+02 >=   2.630000000e+02  20.5% (1501; 1193)
+862906: mip =   3.310000000e+02 >=   2.630000000e+02  20.5% (1546; 1214)
+884487: mip =   3.310000000e+02 >=   2.640000000e+02  20.2% (1582; 1255)
+906592: mip =   3.310000000e+02 >=   2.640000000e+02  20.2% (1629; 1309)
+927742: mip =   3.310000000e+02 >=   2.640000000e+02  20.2% (1665; 1338)
+933556: >>>>>   3.290000000e+02 >=   2.650000000e+02  19.5% (1713; 1343)
+952338: >>>>>   3.120000000e+02 >=   2.650000000e+02  15.1% (1802; 1375)
+977387: mip =   3.120000000e+02 >=   2.650000000e+02  15.1% (1543; 2237)
Time used: 240.6 secs.  Memory used: 17.1 Mb.
+1002850: mip =   3.120000000e+02 >=   2.650000000e+02  15.1% (1628; 2286)
+1027305: mip =   3.120000000e+02 >=   2.650000000e+02  15.1% (1711; 2334)
+1051848: mip =   3.120000000e+02 >=   2.650000000e+02  15.1% (1800; 2367)
+1075289: mip =   3.120000000e+02 >=   2.660000000e+02  14.7% (1841; 2409)
+1102184: mip =   3.120000000e+02 >=   2.660000000e+02  14.7% (1930; 2443)
+1126680: mip =   3.120000000e+02 >=   2.660000000e+02  14.7% (1967; 2532)
+1149835: mip =   3.120000000e+02 >=   2.660000000e+02  14.7% (2009; 2621)
+1171971: mip =   3.120000000e+02 >=   2.660000000e+02  14.7% (2070; 2669)
+1196688: mip =   3.120000000e+02 >=   2.670000000e+02  14.4% (2196; 2684)
+1207360: >>>>>   3.050000000e+02 >=   2.670000000e+02  12.5% (2246; 2691)
+1234071: mip =   3.050000000e+02 >=   2.670000000e+02  12.5% (2213; 3038)
+1261089: mip =   3.050000000e+02 >=   2.670000000e+02  12.5% (2340; 3082)
+1286517: mip =   3.050000000e+02 >=   2.670000000e+02  12.5% (2397; 3123)
Time used: 300.6 secs.  Memory used: 22.8 Mb.
+1311738: mip =   3.050000000e+02 >=   2.670000000e+02  12.5% (2461; 3168)
+1338279: mip =   3.050000000e+02 >=   2.670000000e+02  12.5% (2579; 3208)
+1362723: mip =   3.050000000e+02 >=   2.670000000e+02  12.5% (2607; 3297)
+1386239: mip =   3.050000000e+02 >=   2.670000000e+02  12.5% (2638; 3335)
+1408849: mip =   3.050000000e+02 >=   2.680000000e+02  12.1% (2657; 3391)
+1433640: mip =   3.050000000e+02 >=   2.680000000e+02  12.1% (2676; 3471)
+1460172: mip =   3.050000000e+02 >=   2.680000000e+02  12.1% (2786; 3507)
+1483882: mip =   3.050000000e+02 >=   2.680000000e+02  12.1% (2807; 3568)
+1509591: mip =   3.050000000e+02 >=   2.680000000e+02  12.1% (2873; 3617)
+1534206: mip =   3.050000000e+02 >=   2.690000000e+02  11.8% (2935; 3681)
+1560219: mip =   3.050000000e+02 >=   2.690000000e+02  11.8% (3070; 3730)
Time used: 360.6 secs.  Memory used: 30.4 Mb.
+1586564: mip =   3.050000000e+02 >=   2.690000000e+02  11.8% (3201; 3764)
+1610334: mip =   3.050000000e+02 >=   2.690000000e+02  11.8% (3211; 3859)
+1632982: mip =   3.050000000e+02 >=   2.690000000e+02  11.8% (3281; 3906)
+1653905: mip =   3.050000000e+02 >=   2.690000000e+02  11.8% (3314; 3952)
+1674250: mip =   3.050000000e+02 >=   2.690000000e+02  11.8% (3345; 3994)
+1696001: mip =   3.050000000e+02 >=   2.690000000e+02  11.8% (3407; 4055)
+1722099: mip =   3.050000000e+02 >=   2.690000000e+02  11.8% (3491; 4098)
+1747961: mip =   3.050000000e+02 >=   2.690000000e+02  11.8% (3584; 4143)
+1772999: mip =   3.050000000e+02 >=   2.690000000e+02  11.8% (3659; 4191)
+1797562: mip =   3.050000000e+02 >=   2.690000000e+02  11.8% (3749; 4234)
+1822485: mip =   3.050000000e+02 >=   2.690000000e+02  11.8% (3831; 4292)
+1848347: mip =   3.050000000e+02 >=   2.690000000e+02  11.8% (3938; 4339)
Time used: 420.8 secs.  Memory used: 39.1 Mb.
+1872745: mip =   3.050000000e+02 >=   2.690000000e+02  11.8% (4030; 4397)
+1899319: mip =   3.050000000e+02 >=   2.690000000e+02  11.8% (4146; 4433)
+1921066: mip =   3.050000000e+02 >=   2.690000000e+02  11.8% (4199; 4491)
+1942033: mip =   3.050000000e+02 >=   2.690000000e+02  11.8% (4230; 4539)
+1962717: mip =   3.050000000e+02 >=   2.690000000e+02  11.8% (4272; 4599)
+1985194: mip =   3.050000000e+02 >=   2.690000000e+02  11.8% (4295; 4652)
+2005249: mip =   3.050000000e+02 >=   2.690000000e+02  11.8% (4334; 4788)
+2025102: mip =   3.050000000e+02 >=   2.690000000e+02  11.8% (4342; 5054)
+2044271: mip =   3.050000000e+02 >=   2.690000000e+02  11.8% (4354; 5217)
+2063711: mip =   3.050000000e+02 >=   2.690000000e+02  11.8% (4340; 5427)
+2083966: mip =   3.050000000e+02 >=   2.690000000e+02  11.8% (4379; 5551)
+2104427: mip =   3.050000000e+02 >=   2.690000000e+02  11.8% (4422; 5591)
Time used: 480.8 secs.  Memory used: 44.3 Mb.
+2126092: mip =   3.050000000e+02 >=   2.690000000e+02  11.8% (4478; 5647)
+2150919: mip =   3.050000000e+02 >=   2.690000000e+02  11.8% (4570; 5705)
+2176078: mip =   3.050000000e+02 >=   2.690000000e+02  11.8% (4629; 5746)
+2200156: mip =   3.050000000e+02 >=   2.690000000e+02  11.8% (4708; 5800)
+2225231: mip =   3.050000000e+02 >=   2.690000000e+02  11.8% (4808; 5849)
+2250928: mip =   3.050000000e+02 >=   2.690000000e+02  11.8% (4896; 5901)
+2277049: mip =   3.050000000e+02 >=   2.690000000e+02  11.8% (4974; 5952)
+2297391: mip =   3.050000000e+02 >=   2.690000000e+02  11.8% (5034; 5999)
+2323154: mip =   3.050000000e+02 >=   2.690000000e+02  11.8% (5120; 6053)
+2349025: mip =   3.050000000e+02 >=   2.690000000e+02  11.8% (5225; 6085)
+2371892: mip =   3.050000000e+02 >=   2.690000000e+02  11.8% (5301; 6130)
+2392555: mip =   3.050000000e+02 >=   2.690000000e+02  11.8% (5344; 6185)
Time used: 541.1 secs.  Memory used: 53.2 Mb.
+2413036: mip =   3.050000000e+02 >=   2.690000000e+02  11.8% (5372; 6207)
+2434346: mip =   3.050000000e+02 >=   2.690000000e+02  11.8% (5404; 6255)
+2454580: mip =   3.050000000e+02 >=   2.690000000e+02  11.8% (5422; 6325)
+2475563: mip =   3.050000000e+02 >=   2.690000000e+02  11.8% (5462; 6364)
+2496817: mip =   3.050000000e+02 >=   2.690000000e+02  11.8% (5448; 6639)
+2521744: mip =   3.050000000e+02 >=   2.700000000e+02  11.5% (5444; 6790)
+2548116: mip =   3.050000000e+02 >=   2.700000000e+02  11.5% (5602; 6852)
+2575408: mip =   3.050000000e+02 >=   2.700000000e+02  11.5% (5756; 6923)
+2600997: mip =   3.050000000e+02 >=   2.700000000e+02  11.5% (5896; 6978)
+2626100: mip =   3.050000000e+02 >=   2.700000000e+02  11.5% (5963; 7027)
+2651661: mip =   3.050000000e+02 >=   2.700000000e+02  11.5% (6064; 7087)
+2677500: mip =   3.050000000e+02 >=   2.700000000e+02  11.5% (6212; 7150)
Time used: 601.1 secs.  Memory used: 61.9 Mb.
+2702769: mip =   3.050000000e+02 >=   2.700000000e+02  11.5% (6301; 7206)
+2727469: mip =   3.050000000e+02 >=   2.700000000e+02  11.5% (6413; 7255)
+2752871: mip =   3.050000000e+02 >=   2.700000000e+02  11.5% (6541; 7303)
+2778583: mip =   3.050000000e+02 >=   2.700000000e+02  11.5% (6657; 7353)
+2804785: mip =   3.050000000e+02 >=   2.700000000e+02  11.5% (6773; 7428)
+2830289: mip =   3.050000000e+02 >=   2.700000000e+02  11.5% (6891; 7471)
+2856075: mip =   3.050000000e+02 >=   2.700000000e+02  11.5% (6992; 7524)
+2881333: mip =   3.050000000e+02 >=   2.700000000e+02  11.5% (7085; 7599)
+2906694: mip =   3.050000000e+02 >=   2.700000000e+02  11.5% (7175; 7668)
+2931405: mip =   3.050000000e+02 >=   2.700000000e+02  11.5% (7225; 7701)
+2956375: mip =   3.050000000e+02 >=   2.700000000e+02  11.5% (7339; 7753)
+2981074: mip =   3.050000000e+02 >=   2.700000000e+02  11.5% (7422; 7784)
Time used: 661.1 secs.  Memory used: 73.7 Mb.
+3006584: mip =   3.050000000e+02 >=   2.700000000e+02  11.5% (7503; 7842)
+3032293: mip =   3.050000000e+02 >=   2.700000000e+02  11.5% (7629; 7882)
+3057414: mip =   3.050000000e+02 >=   2.700000000e+02  11.5% (7684; 7950)
+3082251: mip =   3.050000000e+02 >=   2.700000000e+02  11.5% (7789; 7997)
+3106666: mip =   3.050000000e+02 >=   2.700000000e+02  11.5% (7887; 8038)
+3132685: mip =   3.050000000e+02 >=   2.700000000e+02  11.5% (7968; 8104)
+3155783: mip =   3.050000000e+02 >=   2.700000000e+02  11.5% (8014; 8157)
+3181635: mip =   3.050000000e+02 >=   2.700000000e+02  11.5% (8071; 8195)
+3203668: mip =   3.050000000e+02 >=   2.700000000e+02  11.5% (8124; 8220)
+3228440: mip =   3.050000000e+02 >=   2.700000000e+02  11.5% (8196; 8255)
+3251950: mip =   3.050000000e+02 >=   2.700000000e+02  11.5% (8251; 8278)
+3276845: mip =   3.050000000e+02 >=   2.700000000e+02  11.5% (8291; 8332)
Time used: 721.5 secs.  Memory used: 81.9 Mb.
+3298865: mip =   3.050000000e+02 >=   2.700000000e+02  11.5% (8327; 8356)
+3320797: mip =   3.050000000e+02 >=   2.700000000e+02  11.5% (8381; 8387)
+3340888: mip =   3.050000000e+02 >=   2.700000000e+02  11.5% (8414; 8434)
+3360626: mip =   3.050000000e+02 >=   2.700000000e+02  11.5% (8450; 8451)
+3380725: mip =   3.050000000e+02 >=   2.700000000e+02  11.5% (8489; 8464)
+3401525: mip =   3.050000000e+02 >=   2.700000000e+02  11.5% (8529; 8543)
+3421917: mip =   3.050000000e+02 >=   2.700000000e+02  11.5% (8579; 8662)
+3442672: mip =   3.050000000e+02 >=   2.700000000e+02  11.5% (8584; 8826)
+3464046: mip =   3.050000000e+02 >=   2.700000000e+02  11.5% (8576; 8958)
+3489616: mip =   3.050000000e+02 >=   2.710000000e+02  11.1% (8619; 9048)
+3516628: mip =   3.050000000e+02 >=   2.710000000e+02  11.1% (8695; 9139)
Time used: 781.5 secs.  Memory used: 86.6 Mb.
+3543121: mip =   3.050000000e+02 >=   2.710000000e+02  11.1% (8800; 9190)
+3570248: mip =   3.050000000e+02 >=   2.710000000e+02  11.1% (8900; 9210)
+3596916: mip =   3.050000000e+02 >=   2.710000000e+02  11.1% (8987; 9245)
+3623309: mip =   3.050000000e+02 >=   2.710000000e+02  11.1% (9090; 9289)
+3649985: mip =   3.050000000e+02 >=   2.710000000e+02  11.1% (9207; 9319)
+3674728: mip =   3.050000000e+02 >=   2.710000000e+02  11.1% (9332; 9376)
+3698323: mip =   3.050000000e+02 >=   2.710000000e+02  11.1% (9440; 9421)
+3722343: mip =   3.050000000e+02 >=   2.710000000e+02  11.1% (9527; 9482)
+3747135: mip =   3.050000000e+02 >=   2.710000000e+02  11.1% (9576; 9550)
+3771052: mip =   3.050000000e+02 >=   2.710000000e+02  11.1% (9659; 9643)
+3795073: mip =   3.050000000e+02 >=   2.710000000e+02  11.1% (9737; 9691)
+3820313: mip =   3.050000000e+02 >=   2.710000000e+02  11.1% (9818; 9754)
Time used: 841.5 secs.  Memory used: 96.6 Mb.
+3845786: mip =   3.050000000e+02 >=   2.710000000e+02  11.1% (9945; 9803)
+3871317: mip =   3.050000000e+02 >=   2.710000000e+02  11.1% (10066; 9853)
+3896857: mip =   3.050000000e+02 >=   2.710000000e+02  11.1% (10148; 9933)
+3920723: mip =   3.050000000e+02 >=   2.710000000e+02  11.1% (10203; 10024)
+3943691: mip =   3.050000000e+02 >=   2.710000000e+02  11.1% (10243; 10082)
+3967811: mip =   3.050000000e+02 >=   2.710000000e+02  11.1% (10298; 10124)
+3991204: mip =   3.050000000e+02 >=   2.710000000e+02  11.1% (10324; 10218)
+4013447: mip =   3.050000000e+02 >=   2.710000000e+02  11.1% (10395; 10257)
+4037684: mip =   3.050000000e+02 >=   2.710000000e+02  11.1% (10514; 10327)
+4063409: mip =   3.050000000e+02 >=   2.710000000e+02  11.1% (10618; 10369)
+4087384: mip =   3.050000000e+02 >=   2.710000000e+02  11.1% (10672; 10445)
+4111594: mip =   3.050000000e+02 >=   2.710000000e+02  11.1% (10759; 10480)
Time used: 901.6 secs.  Memory used: 105.9 Mb.
+4136886: mip =   3.050000000e+02 >=   2.710000000e+02  11.1% (10837; 10548)
+4162212: mip =   3.050000000e+02 >=   2.710000000e+02  11.1% (10911; 10624)
+4188589: mip =   3.050000000e+02 >=   2.710000000e+02  11.1% (11057; 10686)
+4213088: mip =   3.050000000e+02 >=   2.710000000e+02  11.1% (11162; 10727)
+4237083: mip =   3.050000000e+02 >=   2.710000000e+02  11.1% (11263; 10774)
+4262092: mip =   3.050000000e+02 >=   2.710000000e+02  11.1% (11343; 10823)
+4284443: mip =   3.050000000e+02 >=   2.710000000e+02  11.1% (11411; 10911)
+4309263: mip =   3.050000000e+02 >=   2.710000000e+02  11.1% (11520; 10971)
+4334146: mip =   3.050000000e+02 >=   2.710000000e+02  11.1% (11612; 11049)
+4359312: mip =   3.050000000e+02 >=   2.710000000e+02  11.1% (11693; 11105)
+4383632: mip =   3.050000000e+02 >=   2.710000000e+02  11.1% (11781; 11157)
+4408777: mip =   3.050000000e+02 >=   2.710000000e+02  11.1% (11920; 11227)
Time used: 961.6 secs.  Memory used: 116.9 Mb.
+4434477: mip =   3.050000000e+02 >=   2.710000000e+02  11.1% (11982; 11300)
+4457369: mip =   3.050000000e+02 >=   2.710000000e+02  11.1% (12041; 11399)
+4483374: mip =   3.050000000e+02 >=   2.710000000e+02  11.1% (12165; 11458)
+4506144: mip =   3.050000000e+02 >=   2.710000000e+02  11.1% (12239; 11505)
+4530672: mip =   3.050000000e+02 >=   2.710000000e+02  11.1% (12314; 11583)
+4555833: mip =   3.050000000e+02 >=   2.710000000e+02  11.1% (12402; 11651)
+4581192: mip =   3.050000000e+02 >=   2.710000000e+02  11.1% (12489; 11699)
+4606311: mip =   3.050000000e+02 >=   2.710000000e+02  11.1% (12555; 11736)
+4629457: mip =   3.050000000e+02 >=   2.710000000e+02  11.1% (12596; 11822)
+4650645: mip =   3.050000000e+02 >=   2.710000000e+02  11.1% (12636; 11877)
+4672915: mip =   3.050000000e+02 >=   2.710000000e+02  11.1% (12684; 11977)
+4694988: mip =   3.050000000e+02 >=   2.710000000e+02  11.1% (12731; 12043)
Time used: 1021.6 secs.  Memory used: 125.4 Mb.
+4719421: mip =   3.050000000e+02 >=   2.710000000e+02  11.1% (12815; 12097)
+4741811: mip =   3.050000000e+02 >=   2.710000000e+02  11.1% (12884; 12166)
+4764217: mip =   3.050000000e+02 >=   2.710000000e+02  11.1% (12915; 12230)
+4786325: mip =   3.050000000e+02 >=   2.710000000e+02  11.1% (12946; 12295)
+4807834: mip =   3.050000000e+02 >=   2.710000000e+02  11.1% (12972; 12345)
+4829190: mip =   3.050000000e+02 >=   2.710000000e+02  11.1% (13016; 12421)
+4850939: mip =   3.050000000e+02 >=   2.710000000e+02  11.1% (13051; 12473)
+4871461: mip =   3.050000000e+02 >=   2.710000000e+02  11.1% (13091; 12520)
+4892432: mip =   3.050000000e+02 >=   2.710000000e+02  11.1% (13119; 12562)
+4913760: mip =   3.050000000e+02 >=   2.720000000e+02  10.8% (13119; 12676)
+4938889: mip =   3.050000000e+02 >=   2.720000000e+02  10.8% (13208; 12785)
+4964352: mip =   3.050000000e+02 >=   2.720000000e+02  10.8% (13274; 12808)
Time used: 1081.6 secs.  Memory used: 130.8 Mb.
+4989898: mip =   3.050000000e+02 >=   2.720000000e+02  10.8% (13343; 12834)
+5015187: mip =   3.050000000e+02 >=   2.720000000e+02  10.8% (13399; 12871)
+5042092: mip =   3.050000000e+02 >=   2.720000000e+02  10.8% (13499; 12901)
+5069243: mip =   3.050000000e+02 >=   2.720000000e+02  10.8% (13612; 12935)
+5095244: mip =   3.050000000e+02 >=   2.720000000e+02  10.8% (13722; 13010)
+5121335: mip =   3.050000000e+02 >=   2.720000000e+02  10.8% (13839; 13063)
+5145616: mip =   3.050000000e+02 >=   2.720000000e+02  10.8% (13845; 13137)
+5169637: mip =   3.050000000e+02 >=   2.720000000e+02  10.8% (13892; 13197)
+5193881: mip =   3.050000000e+02 >=   2.720000000e+02  10.8% (13940; 13250)
+5217988: mip =   3.050000000e+02 >=   2.720000000e+02  10.8% (13988; 13334)
+5237799: mip =   3.050000000e+02 >=   2.720000000e+02  10.8% (13987; 13409)
+5257223: mip =   3.050000000e+02 >=   2.720000000e+02  10.8% (14003; 13428)
Time used: 1141.6 secs.  Memory used: 137.1 Mb.
+5277227: mip =   3.050000000e+02 >=   2.720000000e+02  10.8% (14020; 13457)
+5295408: mip =   3.050000000e+02 >=   2.720000000e+02  10.8% (14023; 13487)
+5314054: mip =   3.050000000e+02 >=   2.720000000e+02  10.8% (14031; 13522)
+5333127: mip =   3.050000000e+02 >=   2.720000000e+02  10.8% (14025; 13562)
+5353265: mip =   3.050000000e+02 >=   2.720000000e+02  10.8% (14034; 13600)
+5373357: mip =   3.050000000e+02 >=   2.720000000e+02  10.8% (14042; 13632)
+5392963: mip =   3.050000000e+02 >=   2.720000000e+02  10.8% (14039; 13662)
+5415833: mip =   3.050000000e+02 >=   2.730000000e+02  10.5% (14045; 13818)
+5441319: mip =   3.050000000e+02 >=   2.730000000e+02  10.5% (14120; 13838)
+5465916: mip =   3.050000000e+02 >=   2.730000000e+02  10.5% (14185; 13861)
+5490916: mip =   3.050000000e+02 >=   2.730000000e+02  10.5% (14276; 13895)
Time used: 1201.6 secs.  Memory used: 140.3 Mb.
+5516825: mip =   3.050000000e+02 >=   2.730000000e+02  10.5% (14322; 13935)
+5542615: mip =   3.050000000e+02 >=   2.730000000e+02  10.5% (14383; 13983)
+5567815: mip =   3.050000000e+02 >=   2.730000000e+02  10.5% (14447; 14044)
+5593378: mip =   3.050000000e+02 >=   2.730000000e+02  10.5% (14540; 14078)
+5619187: mip =   3.050000000e+02 >=   2.730000000e+02  10.5% (14654; 14103)
+5645301: mip =   3.050000000e+02 >=   2.730000000e+02  10.5% (14791; 14122)
+5671826: mip =   3.050000000e+02 >=   2.730000000e+02  10.5% (14923; 14140)
+5697407: mip =   3.050000000e+02 >=   2.730000000e+02  10.5% (15052; 14156)
+5721566: mip =   3.050000000e+02 >=   2.730000000e+02  10.5% (15141; 14214)
+5746373: mip =   3.050000000e+02 >=   2.730000000e+02  10.5% (15224; 14246)
+5770386: mip =   3.050000000e+02 >=   2.730000000e+02  10.5% (15269; 14291)
+5793354: mip =   3.050000000e+02 >=   2.730000000e+02  10.5% (15280; 14368)
Time used: 1261.8 secs.  Memory used: 147.5 Mb.
+5814975: mip =   3.050000000e+02 >=   2.730000000e+02  10.5% (15257; 14452)
+5838667: mip =   3.050000000e+02 >=   2.730000000e+02  10.5% (15316; 14500)
+5862218: mip =   3.050000000e+02 >=   2.730000000e+02  10.5% (15371; 14563)
+5883221: mip =   3.050000000e+02 >=   2.730000000e+02  10.5% (15337; 14725)
+5903446: mip =   3.050000000e+02 >=   2.730000000e+02  10.5% (15337; 14773)
+5925694: mip =   3.050000000e+02 >=   2.740000000e+02  10.2% (15345; 14872)
+5951766: mip =   3.050000000e+02 >=   2.740000000e+02  10.2% (15412; 14910)
+5978641: mip =   3.050000000e+02 >=   2.740000000e+02  10.2% (15522; 14943)
+6005242: mip =   3.050000000e+02 >=   2.740000000e+02  10.2% (15620; 14975)
+6029689: mip =   3.050000000e+02 >=   2.740000000e+02  10.2% (15654; 15067)
+6055422: mip =   3.050000000e+02 >=   2.740000000e+02  10.2% (15725; 15121)
+6080179: mip =   3.050000000e+02 >=   2.740000000e+02  10.2% (15769; 15173)
Time used: 1321.8 secs.  Memory used: 153.7 Mb.
+6105886: mip =   3.050000000e+02 >=   2.740000000e+02  10.2% (15830; 15225)
+6132722: mip =   3.050000000e+02 >=   2.740000000e+02  10.2% (15920; 15250)
+6159800: mip =   3.050000000e+02 >=   2.740000000e+02  10.2% (16075; 15268)
+6186215: mip =   3.050000000e+02 >=   2.740000000e+02  10.2% (16243; 15293)
+6210018: mip =   3.050000000e+02 >=   2.740000000e+02  10.2% (16290; 15362)
+6232773: mip =   3.050000000e+02 >=   2.740000000e+02  10.2% (16272; 15429)
+6256694: mip =   3.050000000e+02 >=   2.740000000e+02  10.2% (16323; 15472)
+6278047: mip =   3.050000000e+02 >=   2.740000000e+02  10.2% (16351; 15532)
+6302481: mip =   3.050000000e+02 >=   2.740000000e+02  10.2% (16403; 15599)
+6323917: mip =   3.050000000e+02 >=   2.740000000e+02  10.2% (16418; 15688)
+6344608: mip =   3.050000000e+02 >=   2.740000000e+02  10.2% (16407; 15817)
+6368277: mip =   3.050000000e+02 >=   2.750000000e+02   9.8% (16448; 16013)
Time used: 1381.9 secs.  Memory used: 158.5 Mb.
+6392890: mip =   3.050000000e+02 >=   2.750000000e+02   9.8% (16511; 16059)
+6420498: mip =   3.050000000e+02 >=   2.750000000e+02   9.8% (16647; 16114)
+6448722: mip =   3.050000000e+02 >=   2.750000000e+02   9.8% (16771; 16167)
+6477736: mip =   3.050000000e+02 >=   2.750000000e+02   9.8% (16887; 16211)
+6504087: mip =   3.050000000e+02 >=   2.750000000e+02   9.8% (17004; 16232)
+6531520: mip =   3.050000000e+02 >=   2.750000000e+02   9.8% (17116; 16254)
+6559598: mip =   3.050000000e+02 >=   2.750000000e+02   9.8% (17235; 16281)
+6588318: mip =   3.050000000e+02 >=   2.750000000e+02   9.8% (17362; 16307)
+6616917: mip =   3.050000000e+02 >=   2.750000000e+02   9.8% (17485; 16339)
+6643013: mip =   3.050000000e+02 >=   2.750000000e+02   9.8% (17576; 16391)
+6668985: mip =   3.050000000e+02 >=   2.750000000e+02   9.8% (17637; 16420)
+6693591: mip =   3.050000000e+02 >=   2.750000000e+02   9.8% (17700; 16472)
Time used: 1441.9 secs.  Memory used: 167.2 Mb.
+6718136: mip =   3.050000000e+02 >=   2.750000000e+02   9.8% (17747; 16504)
+6743529: mip =   3.050000000e+02 >=   2.750000000e+02   9.8% (17792; 16548)
+6768537: mip =   3.050000000e+02 >=   2.750000000e+02   9.8% (17839; 16606)
+6792968: mip =   3.050000000e+02 >=   2.750000000e+02   9.8% (17885; 16643)
+6817238: mip =   3.050000000e+02 >=   2.750000000e+02   9.8% (17923; 16674)
+6841643: mip =   3.050000000e+02 >=   2.750000000e+02   9.8% (17954; 16709)
+6866192: mip =   3.050000000e+02 >=   2.750000000e+02   9.8% (18001; 16738)
+6890394: mip =   3.050000000e+02 >=   2.750000000e+02   9.8% (18025; 16771)
+6912562: mip =   3.050000000e+02 >=   2.750000000e+02   9.8% (18068; 16818)
+6934619: mip =   3.050000000e+02 >=   2.750000000e+02   9.8% (18093; 16850)
+6957240: mip =   3.050000000e+02 >=   2.750000000e+02   9.8% (18129; 16881)
+6980135: mip =   3.050000000e+02 >=   2.750000000e+02   9.8% (18166; 16920)
Time used: 1501.9 secs.  Memory used: 171.2 Mb.
+7002197: mip =   3.050000000e+02 >=   2.750000000e+02   9.8% (18223; 16959)
+7024265: mip =   3.050000000e+02 >=   2.750000000e+02   9.8% (18250; 16995)
+7046716: mip =   3.050000000e+02 >=   2.750000000e+02   9.8% (18290; 17020)
+7068291: mip =   3.050000000e+02 >=   2.750000000e+02   9.8% (18308; 17069)
+7089440: mip =   3.050000000e+02 >=   2.750000000e+02   9.8% (18356; 17119)
+7112268: mip =   3.050000000e+02 >=   2.750000000e+02   9.8% (18399; 17171)
+7134186: mip =   3.050000000e+02 >=   2.750000000e+02   9.8% (18429; 17201)
+7154896: mip =   3.050000000e+02 >=   2.750000000e+02   9.8% (18426; 17297)
+7178275: mip =   3.050000000e+02 >=   2.750000000e+02   9.8% (18458; 17327)
+7200990: mip =   3.050000000e+02 >=   2.750000000e+02   9.8% (18448; 17451)
+7222461: mip =   3.050000000e+02 >=   2.750000000e+02   9.8% (18458; 17550)
Time used: 1561.9 secs.  Memory used: 174.4 Mb.
+7243057: mip =   3.050000000e+02 >=   2.750000000e+02   9.8% (18449; 17735)
+7264028: mip =   3.050000000e+02 >=   2.750000000e+02   9.8% (18468; 17878)
+7283829: mip =   3.050000000e+02 >=   2.750000000e+02   9.8% (18463; 18002)
+7306922: mip =   3.050000000e+02 >=   2.750000000e+02   9.8% (18524; 18041)
+7328816: mip =   3.050000000e+02 >=   2.750000000e+02   9.8% (18574; 18070)
+7348523: mip =   3.050000000e+02 >=   2.750000000e+02   9.8% (18607; 18159)
+7370021: mip =   3.050000000e+02 >=   2.750000000e+02   9.8% (18686; 18221)
+7392771: mip =   3.050000000e+02 >=   2.750000000e+02   9.8% (18734; 18270)
+7414630: mip =   3.050000000e+02 >=   2.750000000e+02   9.8% (18809; 18296)
+7437161: mip =   3.050000000e+02 >=   2.750000000e+02   9.8% (18854; 18351)
+7459549: mip =   3.050000000e+02 >=   2.750000000e+02   9.8% (18906; 18381)
+7481889: mip =   3.050000000e+02 >=   2.750000000e+02   9.8% (18967; 18478)
Time used: 1622.1 secs.  Memory used: 179.9 Mb.
+7503798: mip =   3.050000000e+02 >=   2.750000000e+02   9.8% (19024; 18521)
+7525300: mip =   3.050000000e+02 >=   2.750000000e+02   9.8% (19094; 18537)
+7545789: mip =   3.050000000e+02 >=   2.750000000e+02   9.8% (19112; 18564)
+7566855: mip =   3.050000000e+02 >=   2.750000000e+02   9.8% (19165; 18585)
+7588795: mip =   3.050000000e+02 >=   2.750000000e+02   9.8% (19214; 18603)
+7610135: mip =   3.050000000e+02 >=   2.750000000e+02   9.8% (19251; 18623)
+7630128: mip =   3.050000000e+02 >=   2.750000000e+02   9.8% (19254; 18690)
+7650616: mip =   3.050000000e+02 >=   2.750000000e+02   9.8% (19286; 18782)
+7670917: mip =   3.050000000e+02 >=   2.750000000e+02   9.8% (19305; 18857)
+7691843: mip =   3.050000000e+02 >=   2.750000000e+02   9.8% (19316; 18949)
+7712037: mip =   3.050000000e+02 >=   2.750000000e+02   9.8% (19337; 19011)
+7733611: mip =   3.050000000e+02 >=   2.750000000e+02   9.8% (19352; 19047)
Time used: 1682.2 secs.  Memory used: 184.6 Mb.
+7755163: mip =   3.050000000e+02 >=   2.750000000e+02   9.8% (19381; 19082)
+7775753: mip =   3.050000000e+02 >=   2.750000000e+02   9.8% (19416; 19175)
+7797258: mip =   3.050000000e+02 >=   2.750000000e+02   9.8% (19442; 19213)
+7817384: mip =   3.050000000e+02 >=   2.750000000e+02   9.8% (19461; 19352)
+7839002: mip =   3.050000000e+02 >=   2.750000000e+02   9.8% (19518; 19410)
+7861035: mip =   3.050000000e+02 >=   2.750000000e+02   9.8% (19580; 19454)
+7883732: mip =   3.050000000e+02 >=   2.750000000e+02   9.8% (19599; 19532)
+7903659: mip =   3.050000000e+02 >=   2.750000000e+02   9.8% (19614; 19670)
+7924840: mip =   3.050000000e+02 >=   2.750000000e+02   9.8% (19628; 19749)
+7945972: mip =   3.050000000e+02 >=   2.750000000e+02   9.8% (19647; 19809)
+7965462: mip =   3.050000000e+02 >=   2.750000000e+02   9.8% (19656; 19896)
+7987019: mip =   3.050000000e+02 >=   2.750000000e+02   9.8% (19672; 19978)
Time used: 1742.3 secs.  Memory used: 188.6 Mb.
+8007337: mip =   3.050000000e+02 >=   2.750000000e+02   9.8% (19698; 20068)
+8029282: mip =   3.050000000e+02 >=   2.750000000e+02   9.8% (19771; 20151)
+8051545: mip =   3.050000000e+02 >=   2.750000000e+02   9.8% (19854; 20181)
+8074023: mip =   3.050000000e+02 >=   2.750000000e+02   9.8% (19933; 20211)
+8096022: mip =   3.050000000e+02 >=   2.750000000e+02   9.8% (19993; 20269)
+8116890: mip =   3.050000000e+02 >=   2.750000000e+02   9.8% (20036; 20308)
+8137707: mip =   3.050000000e+02 >=   2.750000000e+02   9.8% (20064; 20342)
+8160022: mip =   3.050000000e+02 >=   2.750000000e+02   9.8% (20122; 20405)
+8181324: mip =   3.050000000e+02 >=   2.750000000e+02   9.8% (20148; 20482)
+8201866: mip =   3.050000000e+02 >=   2.750000000e+02   9.8% (20180; 20589)
+8222815: mip =   3.050000000e+02 >=   2.750000000e+02   9.8% (20207; 20633)
